NAME : XML100_3352_18
DIMENSION : 101
NB_CLUSTERS : 5
CLUSTERING_ALG : KMeans
CLUSTERING_PARAMS : k(4)
CLUSTERS
1 0
2 1 8 11 12 13 21 22 25 27 31 33 36 37 38 40 43 45 48 50 51 52 55 57 58 59 60 61 62 63 71 76 77 78 84 88 89 90 93 94 97
3 2 3 5 6 7 20 30 32 47 65 80 82 85 86 95 98 100
4 9 10 14 15 17 18 19 23 28 29 34 35 39 41 42 44 46 49 64 66 67 68 69 70 72 73 74 75 79 81 83 87 91 92 96 99
5 4 16 24 26 53 54 56
EOF